p cnf 18 45
7 -8 -11 0
-4 7 -12 0
-1 5 -12 0
1 -10 -17 0
9 15 18 0
-5 -8 11 0
-8 -14 -18 0
-5 -7 8 0
1 9 -14 0
1 6 16 0
-2 -4 6 0
-14 -16 -17 0
-6 -9 12 0
-3 -11 -16 0
-4 11 -18 0
-1 -8 14 0
2 4 6 0
4 -9 17 0
1 4 15 0
2 9 17 0
1 5 15 0
-1 8 16 0
-4 -12 -16 0
-4 -9 -18 0
1 6 12 0
1 11 12 0
-1 -5 9 0
-11 -14 -18 0
7 -11 -15 0
-8 -10 -11 0
6 -11 14 0
4 -7 -13 0
-4 5 17 0
9 -13 17 0
1 14 18 0
8 -14 -16 0
3 -11 14 0
5 9 14 0
-4 11 18 0
-3 -6 -14 0
4 -12 -14 0
-9 13 15 0
3 -9 17 0
-3 -11 16 0
3 10 13 0
